p cnf 1093
-18 -340
-19 -343
-20 -346
-21 -349
-22 -352
-23 -355
-24 -358
-25 -361
-26 -364
-27 -367
-28 -370
-29 -373
-30 -376
-31 -379
-32 -382
-33 -385
-34 -388
-35 389
-36 390
-37 391
-38 392
-39 393
-40 394
-41 395
-42 -19
-42 -20
19 20 42
-43 -21
-43 -22
21 22 43
-44 -23
-44 -24
23 24 44
-45 -25
-45 -26
25 26 45
-46 -27
-46 -28
27 28 46
-47 -29
-47 -30
29 30 47
-48 -31
-48 -32
31 32 48
-49 -33
-49 -34
33 34 49
-50 -35
-50 -36
35 36 50
-51 -37
-51 -38
37 38 51
-52 -39
-52 -40
39 40 52
-53 42
-53 43
-42 -43 53
-54 44
-54 45
-44 -45 54
-55 46
-55 47
-46 -47 55
-56 48
-56 49
-48 -49 56
-57 50
-57 51
-50 -51 57
-58 -41
-58 52
41 -52 58
-59 53
-59 54
-53 -54 59
-60 55
-60 56
-55 -56 60
-61 57
-61 58
-57 -58 61
-62 59
-62 60
-59 -60 62
-63 61
-63 62
-61 -62 63
-64 -18
-64 19
18 -19 64
-65 18
-65 -19
-18 19 65
-66 -64
-66 -65
64 65 66
-67 18
-67 19
-18 -19 67
-68 -18
-68 -66
18 66 68
-69 18
-69 66
-18 -66 69
-70 -68
-70 -69
68 69 70
-71 18
-71 -66
-18 66 71
-72 -67
-72 -71
67 71 72
-73 -19
-73 20
19 -20 73
-74 19
-74 -20
-19 20 74
-75 -73
-75 -74
73 74 75
-76 19
-76 20
-19 -20 76
-77 72
-77 -75
-72 75 77
-78 -72
-78 75
72 -75 78
-79 -77
-79 -78
77 78 79
-80 -72
-80 -75
72 75 80
-81 -76
-81 -80
76 80 81
-82 -20
-82 21
20 -21 82
-83 20
-83 -21
-20 21 83
-84 -82
-84 -83
82 83 84
-85 20
-85 21
-20 -21 85
-86 81
-86 -84
-81 84 86
-87 -81
-87 84
81 -84 87
-88 -86
-88 -87
86 87 88
-89 -81
-89 -84
81 84 89
-90 -85
-90 -89
85 89 90
-91 -21
-91 22
21 -22 91
-92 21
-92 -22
-21 22 92
-93 -91
-93 -92
91 92 93
-94 21
-94 22
-21 -22 94
-95 90
-95 -93
-90 93 95
-96 -90
-96 93
90 -93 96
-97 -95
-97 -96
95 96 97
-98 -90
-98 -93
90 93 98
-99 -94
-99 -98
94 98 99
-100 -22
-100 23
22 -23 100
-101 22
-101 -23
-22 23 101
-102 -100
-102 -101
100 101 102
-103 22
-103 23
-22 -23 103
-104 99
-104 -102
-99 102 104
-105 -99
-105 102
99 -102 105
-106 -104
-106 -105
104 105 106
-107 -99
-107 -102
99 102 107
-108 -103
-108 -107
103 107 108
-109 -23
-109 24
23 -24 109
-110 23
-110 -24
-23 24 110
-111 -109
-111 -110
109 110 111
-112 23
-112 24
-23 -24 112
-113 108
-113 -111
-108 111 113
-114 -108
-114 111
108 -111 114
-115 -113
-115 -114
113 114 115
-116 -108
-116 -111
108 111 116
-117 -112
-117 -116
112 116 117
-118 -24
-118 25
24 -25 118
-119 24
-119 -25
-24 25 119
-120 -118
-120 -119
118 119 120
-121 24
-121 25
-24 -25 121
-122 117
-122 -120
-117 120 122
-123 -117
-123 120
117 -120 123
-124 -122
-124 -123
122 123 124
-125 -117
-125 -120
117 120 125
-126 -121
-126 -125
121 125 126
-127 -25
-127 26
25 -26 127
-128 25
-128 -26
-25 26 128
-129 -127
-129 -128
127 128 129
-130 25
-130 26
-25 -26 130
-131 126
-131 -129
-126 129 131
-132 -126
-132 129
126 -129 132
-133 -131
-133 -132
131 132 133
-134 -126
-134 -129
126 129 134
-135 -130
-135 -134
130 134 135
-136 -26
-136 27
26 -27 136
-137 26
-137 -27
-26 27 137
-138 -136
-138 -137
136 137 138
-139 26
-139 27
-26 -27 139
-140 135
-140 -138
-135 138 140
-141 -135
-141 138
135 -138 141
-142 -140
-142 -141
140 141 142
-143 -135
-143 -138
135 138 143
-144 -139
-144 -143
139 143 144
-145 -27
-145 28
27 -28 145
-146 27
-146 -28
-27 28 146
-147 -145
-147 -146
145 146 147
-148 27
-148 28
-27 -28 148
-149 144
-149 -147
-144 147 149
-150 -144
-150 147
144 -147 150
-151 -149
-151 -150
149 150 151
-152 -144
-152 -147
144 147 152
-153 -148
-153 -152
148 152 153
-154 -28
-154 29
28 -29 154
-155 28
-155 -29
-28 29 155
-156 -154
-156 -155
154 155 156
-157 28
-157 29
-28 -29 157
-158 153
-158 -156
-153 156 158
-159 -153
-159 156
153 -156 159
-160 -158
-160 -159
158 159 160
-161 -153
-161 -156
153 156 161
-162 -157
-162 -161
157 161 162
-163 -29
-163 30
29 -30 163
-164 29
-164 -30
-29 30 164
-165 -163
-165 -164
163 164 165
-166 29
-166 30
-29 -30 166
-167 162
-167 -165
-162 165 167
-168 -162
-168 165
162 -165 168
-169 -167
-169 -168
167 168 169
-170 -162
-170 -165
162 165 170
-171 -166
-171 -170
166 170 171
-172 -30
-172 31
30 -31 172
-173 30
-173 -31
-30 31 173
-174 -172
-174 -173
172 173 174
-175 30
-175 31
-30 -31 175
-176 171
-176 -174
-171 174 176
-177 -171
-177 174
171 -174 177
-178 -176
-178 -177
176 177 178
-179 -171
-179 -174
171 174 179
-180 -175
-180 -179
175 179 180
-181 -31
-181 32
31 -32 181
-182 31
-182 -32
-31 32 182
-183 -181
-183 -182
181 182 183
-184 31
-184 32
-31 -32 184
-185 180
-185 -183
-180 183 185
-186 -180
-186 183
180 -183 186
-187 -185
-187 -186
185 186 187
-188 -180
-188 -183
180 183 188
-189 -184
-189 -188
184 188 189
-190 -32
-190 33
32 -33 190
-191 32
-191 -33
-32 33 191
-192 -190
-192 -191
190 191 192
-193 32
-193 33
-32 -33 193
-194 189
-194 -192
-189 192 194
-195 -189
-195 192
189 -192 195
-196 -194
-196 -195
194 195 196
-197 -189
-197 -192
189 192 197
-198 -193
-198 -197
193 197 198
-199 -33
-199 34
33 -34 199
-200 33
-200 -34
-33 34 200
-201 -199
-201 -200
199 200 201
-202 33
-202 34
-33 -34 202
-203 198
-203 -201
-198 201 203
-204 -198
-204 201
198 -201 204
-205 -203
-205 -204
203 204 205
-206 -198
-206 -201
198 201 206
-207 -202
-207 -206
202 206 207
-208 -34
-208 35
34 -35 208
-209 34
-209 -35
-34 35 209
-210 -208
-210 -209
208 209 210
-211 34
-211 35
-34 -35 211
-212 207
-212 -210
-207 210 212
-213 -207
-213 210
207 -210 213
-214 -212
-214 -213
212 213 214
-215 -207
-215 -210
207 210 215
-216 -211
-216 -215
211 215 216
-217 -35
-217 36
35 -36 217
-218 35
-218 -36
-35 36 218
-219 -217
-219 -218
217 218 219
-220 35
-220 36
-35 -36 220
-221 216
-221 -219
-216 219 221
-222 -216
-222 219
216 -219 222
-223 -221
-223 -222
221 222 223
-224 -216
-224 -219
216 219 224
-225 -220
-225 -224
220 224 225
-226 -36
-226 37
36 -37 226
-227 36
-227 -37
-36 37 227
-228 -226
-228 -227
226 227 228
-229 36
-229 37
-36 -37 229
-230 225
-230 -228
-225 228 230
-231 -225
-231 228
225 -228 231
-232 -230
-232 -231
230 231 232
-233 -225
-233 -228
225 228 233
-234 -229
-234 -233
229 233 234
-235 -37
-235 38
37 -38 235
-236 37
-236 -38
-37 38 236
-237 -235
-237 -236
235 236 237
-238 37
-238 38
-37 -38 238
-239 234
-239 -237
-234 237 239
-240 -234
-240 237
234 -237 240
-241 -239
-241 -240
239 240 241
-242 -234
-242 -237
234 237 242
-243 -238
-243 -242
238 242 243
-244 -38
-244 39
38 -39 244
-245 38
-245 -39
-38 39 245
-246 -244
-246 -245
244 245 246
-247 38
-247 39
-38 -39 247
-248 243
-248 -246
-243 246 248
-249 -243
-249 246
243 -246 249
-250 -248
-250 -249
248 249 250
-251 -243
-251 -246
243 246 251
-252 -247
-252 -251
247 251 252
-253 -39
-253 40
39 -40 253
-254 39
-254 -40
-39 40 254
-255 -253
-255 -254
253 254 255
-256 39
-256 40
-39 -40 256
-257 252
-257 -255
-252 255 257
-258 -252
-258 255
252 -255 258
-259 -257
-259 -258
257 258 259
-260 -252
-260 -255
252 255 260
-261 -256
-261 -260
256 260 261
-262 -40
-262 41
40 -41 262
-263 40
-263 -41
-40 41 263
-264 -262
-264 -263
262 263 264
-265 40
-265 41
-40 -41 265
-266 261
-266 -264
-261 264 266
-267 -261
-267 264
261 -264 267
-268 -266
-268 -267
266 267 268
-269 -261
-269 -264
261 264 269
-270 -265
-270 -269
265 269 270
-271 18
-271 -70
-18 70 271
-272 -18
-272 20
18 -20 272
-273 -271
-273 -272
271 272 273
-274 18
-274 -79
-18 79 274
-275 -18
-275 21
18 -21 275
-276 -274
-276 -275
274 275 276
-277 18
-277 -88
-18 88 277
-278 -18
-278 22
18 -22 278
-279 -277
-279 -278
277 278 279
-280 18
-280 -97
-18 97 280
-281 -18
-281 23
18 -23 281
-282 -280
-282 -281
280 281 282
-283 18
-283 -106
-18 106 283
-284 -18
-284 24
18 -24 284
-285 -283
-285 -284
283 284 285
-286 18
-286 -115
-18 115 286
-287 -18
-287 25
18 -25 287
-288 -286
-288 -287
286 287 288
-289 18
-289 -124
-18 124 289
-290 -18
-290 26
18 -26 290
-291 -289
-291 -290
289 290 291
-292 18
-292 -133
-18 133 292
-293 -18
-293 27
18 -27 293
-294 -292
-294 -293
292 293 294
-295 18
-295 -142
-18 142 295
-296 -18
-296 28
18 -28 296
-297 -295
-297 -296
295 296 297
-298 18
-298 -151
-18 151 298
-299 -18
-299 29
18 -29 299
-300 -298
-300 -299
298 299 300
-301 18
-301 -160
-18 160 301
-302 -18
-302 30
18 -30 302
-303 -301
-303 -302
301 302 303
-304 18
-304 -169
-18 169 304
-305 -18
-305 31
18 -31 305
-306 -304
-306 -305
304 305 306
-307 18
-307 -178
-18 178 307
-308 -18
-308 32
18 -32 308
-309 -307
-309 -308
307 308 309
-310 18
-310 -187
-18 187 310
-311 -18
-311 33
18 -33 311
-312 -310
-312 -311
310 311 312
-313 18
-313 -196
-18 196 313
-314 -18
-314 34
18 -34 314
-315 -313
-315 -314
313 314 315
-316 18
-316 -205
-18 205 316
-317 -18
-317 35
18 -35 317
-318 -316
-318 -317
316 317 318
-319 18
-319 -214
-18 214 319
-320 -18
-320 36
18 -36 320
-321 -319
-321 -320
319 320 321
-322 18
-322 -223
-18 223 322
-323 -18
-323 37
18 -37 323
-324 -322
-324 -323
322 323 324
-325 18
-325 -232
-18 232 325
-326 -18
-326 38
18 -38 326
-327 -325
-327 -326
325 326 327
-328 18
-328 -241
-18 241 328
-329 -18
-329 39
18 -39 329
-330 -328
-330 -329
328 329 330
-331 18
-331 -250
-18 250 331
-332 -18
-332 40
18 -40 332
-333 -331
-333 -332
331 332 333
-334 18
-334 -259
-18 259 334
-335 -18
-335 41
18 -41 335
-336 -334
-336 -335
334 335 336
-337 18
-337 -268
-18 268 337
-338 1
-338 63
-1 -63 338
-339 -63
-339 64
63 -64 339
-340 -338
-340 -339
338 339 340
-341 2
-341 63
-2 -63 341
-342 -63
-342 -273
63 273 342
-343 -341
-343 -342
341 342 343
-344 3
-344 63
-3 -63 344
-345 -63
-345 -276
63 276 345
-346 -344
-346 -345
344 345 346
-347 4
-347 63
-4 -63 347
-348 -63
-348 -279
63 279 348
-349 -347
-349 -348
347 348 349
-350 5
-350 63
-5 -63 350
-351 -63
-351 -282
63 282 351
-352 -350
-352 -351
350 351 352
-353 6
-353 63
-6 -63 353
-354 -63
-354 -285
63 285 354
-355 -353
-355 -354
353 354 355
-356 7
-356 63
-7 -63 356
-357 -63
-357 -288
63 288 357
-358 -356
-358 -357
356 357 358
-359 8
-359 63
-8 -63 359
-360 -63
-360 -291
63 291 360
-361 -359
-361 -360
359 360 361
-362 9
-362 63
-9 -63 362
-363 -63
-363 -294
63 294 363
-364 -362
-364 -363
362 363 364
-365 10
-365 63
-10 -63 365
-366 -63
-366 -297
63 297 366
-367 -365
-367 -366
365 366 367
-368 11
-368 63
-11 -63 368
-369 -63
-369 -300
63 300 369
-370 -368
-370 -369
368 369 370
-371 12
-371 63
-12 -63 371
-372 -63
-372 -303
63 303 372
-373 -371
-373 -372
371 372 373
-374 13
-374 63
-13 -63 374
-375 -63
-375 -306
63 306 375
-376 -374
-376 -375
374 375 376
-377 14
-377 63
-14 -63 377
-378 -63
-378 -309
63 309 378
-379 -377
-379 -378
377 378 379
-380 15
-380 63
-15 -63 380
-381 -63
-381 -312
63 312 381
-382 -380
-382 -381
380 381 382
-383 16
-383 63
-16 -63 383
-384 -63
-384 -315
63 315 384
-385 -383
-385 -384
383 384 385
-386 17
-386 63
-17 -63 386
-387 -63
-387 -318
63 318 387
-388 -386
-388 -387
386 387 388
-389 -63
-389 -321
63 321 389
-390 -63
-390 -324
63 324 390
-391 -63
-391 -327
63 327 391
-392 -63
-392 -330
63 330 392
-393 -63
-393 -333
63 333 393
-394 -63
-394 -336
63 336 394
-395 -63
-395 337
63 -337 395
-396 -41
-396 270
41 -270 396
-397 18
-397 -396
-18 396 397
397
